instances/shortest_path/discrete/shortest_path_6_16.lp
\ Model nohadani_6_16
\ LP format - for model browsing. Use MPS format to capture full model detail.
\ Signature: 0x9d6f60db6d04e09d
Minimize
  39.44616584663204 y[0,1] + 81.21576201698781 y[0,3]
   + 14.31782106327635 y[0,4] + 52.83937925449163 y[0,5]
   + 39.44616584663204 y[1,0] + 46.38965401897281 y[1,3]
   + 37.48332962798263 y[1,4] + 47.53945729601885 y[1,5]
   + 94.42986815621421 y[2,3] + 59.50630218724736 y[2,5]
   + 81.21576201698781 y[3,0] + 46.38965401897281 y[3,1]
   + 94.42986815621421 y[3,2] + 83 y[3,4] + 52.49761899362675 y[3,5]
   + 14.31782106327635 y[4,0] + 37.48332962798263 y[4,1] + 83 y[4,3]
   + 63.25345840347388 y[4,5] + 52.83937925449163 y[5,0]
   + 47.53945729601885 y[5,1] + 59.50630218724736 y[5,2]
   + 52.49761899362675 y[5,3] + 63.25345840347388 y[5,4] + x[0,1] + x[0,3]
   + x[0,4] + x[0,5] + x[1,0] + x[1,3] + x[1,4] + x[1,5] + x[2,3] + x[2,5]
   + x[3,0] + x[3,1] + x[3,2] + x[3,4] + x[3,5] + x[4,0] + x[4,1] + x[4,3]
   + x[4,5] + x[5,0] + x[5,1] + x[5,2] + x[5,3] + x[5,4]
   + 3.944616584663204 r[0,1] + 8.121576201698781 r[0,3]
   + 1.431782106327635 r[0,4] + 5.283937925449163 r[0,5]
   + 3.944616584663204 r[1,0] + 4.638965401897281 r[1,3]
   + 3.748332962798263 r[1,4] + 4.753945729601885 r[1,5]
   + 9.442986815621422 r[2,3] + 5.950630218724736 r[2,5]
   + 8.121576201698781 r[3,0] + 4.638965401897281 r[3,1]
   + 9.442986815621422 r[3,2] + 8.3 r[3,4] + 5.249761899362675 r[3,5]
   + 1.431782106327635 r[4,0] + 3.748332962798263 r[4,1] + 8.3 r[4,3]
   + 6.325345840347389 r[4,5] + 5.283937925449163 r[5,0]
   + 4.753945729601885 r[5,1] + 5.950630218724736 r[5,2]
   + 5.249761899362675 r[5,3] + 6.325345840347389 r[5,4]
Subject To
 flow_cons_inner_nodes[0]: - y[0,1] - y[0,3] - y[0,4] - y[0,5] + y[1,0]
   + y[3,0] + y[4,0] + y[5,0] = 0
 flow_cons_inner_nodes[1]: y[0,1] - y[1,0] - y[1,3] - y[1,4] - y[1,5]
   + y[3,1] + y[4,1] + y[5,1] = 0
 flow_cons_inner_nodes[3]: y[0,3] + y[1,3] + y[2,3] - y[3,0] - y[3,1]
   - y[3,2] - y[3,4] - y[3,5] + y[4,3] + y[5,3] = 0
 flow_cons_inner_nodes[5]: y[0,5] + y[1,5] + y[2,5] + y[3,5] + y[4,5]
   - y[5,0] - y[5,1] - y[5,2] - y[5,3] - y[5,4] = 0
 flow_cons_source: y[2,3] + y[2,5] - y[3,2] - y[5,2] = 1
 flow_cons_target: y[0,4] + y[1,4] + y[3,4] - y[4,0] - y[4,1] - y[4,3]
   - y[4,5] + y[5,4] = 1
 primal_lower: 2.610360304372822 x[0,1] + 0.9447605901214811 x[0,3]
   + 2.370594017544615 x[0,4] + 3.794231982070192 x[0,5]
   + 0.8099047593054191 x[1,0] + 3.946523281658667 x[1,3]
   + 3.373174060936739 x[1,4] + 1.168613447125253 x[1,5]
   + 0.1737450666398245 x[2,3] + 1.733398058504516 x[2,5]
   + 0.5506283528989107 x[3,0] + 0.333755552143947 x[3,1]
   + 4.87787335713884 x[3,2] + 0.4393972185521967 x[3,4]
   + 3.367832234427636 x[3,5] + 1.359920159186694 x[4,0]
   + 0.6859081007931647 x[4,1] + 1.033518502265084 x[4,3]
   + 3.011398792386111 x[4,5] + 0.3050156068020426 x[5,0]
   + 4.830118676306903 x[5,1] + 3.565296934017621 x[5,2]
   + 3.264991414061632 x[5,3] + 2.483827803400871 x[5,4] + 99 u[0,1]
   + 60 u[0,3] + 54 u[0,4] + 47 u[0,5] + 60 u[1,0] + 37 u[1,3] + u[1,4]
   + 79 u[1,5] + 53 u[2,3] + 38 u[2,5] + 63 u[3,0] + 35 u[3,1] + 16 u[3,2]
   + 88 u[3,4] + 40 u[3,5] + 100 u[4,0] + 49 u[4,1] + 100 u[4,3]
   + 61 u[4,5] + 2 u[5,0] + 45 u[5,1] + 99 u[5,2] + 4 u[5,3] + 70 u[5,4]
   <= 118
 mccormick1[0,1]: - u[0,1] + r[0,1] <= 0
 mccormick1[0,3]: - u[0,3] + r[0,3] <= 0
 mccormick1[0,4]: - u[0,4] + r[0,4] <= 0
 mccormick1[0,5]: - u[0,5] + r[0,5] <= 0
 mccormick1[1,0]: - u[1,0] + r[1,0] <= 0
 mccormick1[1,3]: - u[1,3] + r[1,3] <= 0
 mccormick1[1,4]: - u[1,4] + r[1,4] <= 0
 mccormick1[1,5]: - u[1,5] + r[1,5] <= 0
 mccormick1[2,3]: - u[2,3] + r[2,3] <= 0
 mccormick1[2,5]: - u[2,5] + r[2,5] <= 0
 mccormick1[3,0]: - u[3,0] + r[3,0] <= 0
 mccormick1[3,1]: - u[3,1] + r[3,1] <= 0
 mccormick1[3,2]: - u[3,2] + r[3,2] <= 0
 mccormick1[3,4]: - u[3,4] + r[3,4] <= 0
 mccormick1[3,5]: - u[3,5] + r[3,5] <= 0
 mccormick1[4,0]: - u[4,0] + r[4,0] <= 0
 mccormick1[4,1]: - u[4,1] + r[4,1] <= 0
 mccormick1[4,3]: - u[4,3] + r[4,3] <= 0
 mccormick1[4,5]: - u[4,5] + r[4,5] <= 0
 mccormick1[5,0]: - u[5,0] + r[5,0] <= 0
 mccormick1[5,1]: - u[5,1] + r[5,1] <= 0
 mccormick1[5,2]: - u[5,2] + r[5,2] <= 0
 mccormick1[5,3]: - u[5,3] + r[5,3] <= 0
 mccormick1[5,4]: - u[5,4] + r[5,4] <= 0
 mccormick2[0,1]: - y[0,1] + r[0,1] <= 0
 mccormick2[0,3]: - y[0,3] + r[0,3] <= 0
 mccormick2[0,4]: - y[0,4] + r[0,4] <= 0
 mccormick2[0,5]: - y[0,5] + r[0,5] <= 0
 mccormick2[1,0]: - y[1,0] + r[1,0] <= 0
 mccormick2[1,3]: - y[1,3] + r[1,3] <= 0
 mccormick2[1,4]: - y[1,4] + r[1,4] <= 0
 mccormick2[1,5]: - y[1,5] + r[1,5] <= 0
 mccormick2[2,3]: - y[2,3] + r[2,3] <= 0
 mccormick2[2,5]: - y[2,5] + r[2,5] <= 0
 mccormick2[3,0]: - y[3,0] + r[3,0] <= 0
 mccormick2[3,1]: - y[3,1] + r[3,1] <= 0
 mccormick2[3,2]: - y[3,2] + r[3,2] <= 0
 mccormick2[3,4]: - y[3,4] + r[3,4] <= 0
 mccormick2[3,5]: - y[3,5] + r[3,5] <= 0
 mccormick2[4,0]: - y[4,0] + r[4,0] <= 0
 mccormick2[4,1]: - y[4,1] + r[4,1] <= 0
 mccormick2[4,3]: - y[4,3] + r[4,3] <= 0
 mccormick2[4,5]: - y[4,5] + r[4,5] <= 0
 mccormick2[5,0]: - y[5,0] + r[5,0] <= 0
 mccormick2[5,1]: - y[5,1] + r[5,1] <= 0
 mccormick2[5,2]: - y[5,2] + r[5,2] <= 0
 mccormick2[5,3]: - y[5,3] + r[5,3] <= 0
 mccormick2[5,4]: - y[5,4] + r[5,4] <= 0
 mccormick3[0,1]: - y[0,1] - u[0,1] + r[0,1] >= -1
 mccormick3[0,3]: - y[0,3] - u[0,3] + r[0,3] >= -1
 mccormick3[0,4]: - y[0,4] - u[0,4] + r[0,4] >= -1
 mccormick3[0,5]: - y[0,5] - u[0,5] + r[0,5] >= -1
 mccormick3[1,0]: - y[1,0] - u[1,0] + r[1,0] >= -1
 mccormick3[1,3]: - y[1,3] - u[1,3] + r[1,3] >= -1
 mccormick3[1,4]: - y[1,4] - u[1,4] + r[1,4] >= -1
 mccormick3[1,5]: - y[1,5] - u[1,5] + r[1,5] >= -1
 mccormick3[2,3]: - y[2,3] - u[2,3] + r[2,3] >= -1
 mccormick3[2,5]: - y[2,5] - u[2,5] + r[2,5] >= -1
 mccormick3[3,0]: - y[3,0] - u[3,0] + r[3,0] >= -1
 mccormick3[3,1]: - y[3,1] - u[3,1] + r[3,1] >= -1
 mccormick3[3,2]: - y[3,2] - u[3,2] + r[3,2] >= -1
 mccormick3[3,4]: - y[3,4] - u[3,4] + r[3,4] >= -1
 mccormick3[3,5]: - y[3,5] - u[3,5] + r[3,5] >= -1
 mccormick3[4,0]: - y[4,0] - u[4,0] + r[4,0] >= -1
 mccormick3[4,1]: - y[4,1] - u[4,1] + r[4,1] >= -1
 mccormick3[4,3]: - y[4,3] - u[4,3] + r[4,3] >= -1
 mccormick3[4,5]: - y[4,5] - u[4,5] + r[4,5] >= -1
 mccormick3[5,0]: - y[5,0] - u[5,0] + r[5,0] >= -1
 mccormick3[5,1]: - y[5,1] - u[5,1] + r[5,1] >= -1
 mccormick3[5,2]: - y[5,2] - u[5,2] + r[5,2] >= -1
 mccormick3[5,3]: - y[5,3] - u[5,3] + r[5,3] >= -1
 mccormick3[5,4]: - y[5,4] - u[5,4] + r[5,4] >= -1
Bounds
Binaries
 y[0,1] y[0,3] y[0,4] y[0,5] y[1,0] y[1,3] y[1,4] y[1,5] y[2,3] y[2,5]
 y[3,0] y[3,1] y[3,2] y[3,4] y[3,5] y[4,0] y[4,1] y[4,3] y[4,5] y[5,0]
 y[5,1] y[5,2] y[5,3] y[5,4] x[0,1] x[0,3] x[0,4] x[0,5] x[1,0] x[1,3]
 x[1,4] x[1,5] x[2,3] x[2,5] x[3,0] x[3,1] x[3,2] x[3,4] x[3,5] x[4,0]
 x[4,1] x[4,3] x[4,5] x[5,0] x[5,1] x[5,2] x[5,3] x[5,4] u[0,1] u[0,3]
 u[0,4] u[0,5] u[1,0] u[1,3] u[1,4] u[1,5] u[2,3] u[2,5] u[3,0] u[3,1]
 u[3,2] u[3,4] u[3,5] u[4,0] u[4,1] u[4,3] u[4,5] u[5,0] u[5,1] u[5,2]
 u[5,3] u[5,4] r[0,1] r[0,3] r[0,4] r[0,5] r[1,0] r[1,3] r[1,4] r[1,5]
 r[2,3] r[2,5] r[3,0] r[3,1] r[3,2] r[3,4] r[3,5] r[4,0] r[4,1] r[4,3]
 r[4,5] r[5,0] r[5,1] r[5,2] r[5,3] r[5,4]
End
